40	100	100	100
5	5	6
2	7	9
1	5	3
9	7	2
2	6	3
1	5	7
4	6	1
2	1	8
3	8	6
9	6	4
6	6	8
2	7	9
5	6	1
2	8	2
3	2	8
5	1	6
8	9	2
6	1	8
3	4	8
4	8	7
6	4	2
5	9	5
8	5	8
6	6	8
3	3	8
6	6	1
8	5	2
3	1	9
4	1	9
7	5	5
2	8	4
6	5	3
7	6	4
5	8	6
1	9	1
8	5	1
5	3	9
5	4	2
3	5	8
8	1	6
